Version identifier: 20.1.0.0 | 2020-11-10 | 9bedb6d68
Tried aggregator 2 times.
MIP Presolve eliminated 1876 rows and 933 columns.
MIP Presolve modified 4744 coefficients.
Aggregator did 196 substitutions.
Reduced MIP has 2737 rows, 2186 columns, and 8977 nonzeros.
Reduced MIP has 410 binaries, 1776 generals, 0 SOSs, and 0 indicators.
Presolve time = 0.02 sec. (11.07 ticks)
Probing fixed 56 vars, tightened 659 bounds.
Probing time = 0.00 sec. (2.20 ticks)
Tried aggregator 2 times.
Detecting symmetries...
MIP Presolve eliminated 1092 rows and 84 columns.
MIP Presolve modified 217 coefficients.
Aggregator did 22 substitutions.
Reduced MIP has 1623 rows, 2080 columns, and 5299 nonzeros.
Reduced MIP has 564 binaries, 1516 generals, 0 SOSs, and 0 indicators.
Presolve time = 0.02 sec. (7.52 ticks)
Probing time = 0.00 sec. (0.51 ticks)
Clique table members: 21.
MIP emphasis: balance optimality and feasibility.
MIP search method: dynamic search.
Parallel mode: deterministic, using up to 24 threads.
Root relaxation solution time = 0.02 sec. (6.99 ticks)

        Nodes                                         Cuts/
   Node  Left     Objective  IInf  Best Integer    Best Bound    ItCnt     Gap

      0     0        0.0000    82                      0.0000      578         
      0     0        0.0000   138                   Cuts: 171      758         
*     0+    0                           62.0000        0.0000           100.00%
*     0+    0                           18.0000        0.0000           100.00%
      0     0        cutoff             18.0000       18.0000      896    0.00%
Elapsed time = 1.25 sec. (147.19 ticks, tree = 0.01 MB, solutions = 2)

Cover cuts applied:  1
Implied bound cuts applied:  60
Flow cuts applied:  1
Mixed integer rounding cuts applied:  26
Zero-half cuts applied:  81
Lift and project cuts applied:  16
Gomory fractional cuts applied:  43

Root node processing (before b&c):
  Real time             =    1.25 sec. (147.34 ticks)
Parallel b&c, 24 threads:
  Real time             =    0.00 sec. (0.00 ticks)
  Sync time (average)   =    0.00 sec.
  Wait time (average)   =    0.00 sec.
                          ------------
Total (root+branch&cut) =    1.25 sec. (147.34 ticks)

Solution status = Optimal
Solution LB = 18
Solution UB = 18
Runtime = 1.26028 seconds
	Command being timed: "/home/min/git_repos/CS598MEBProject/CNT-ILP/build/cnt -s 2 ./output/k8_n30/simC_c1_k8_n30_u2_s2_del02.input-right.cnp"
	User time (seconds): 17.33
	System time (seconds): 0.13
	Percent of CPU this job got: 1356%
	Elapsed (wall clock) time (h:mm:ss or m:ss): 0:01.28
	Average shared text size (kbytes): 0
	Average unshared data size (kbytes): 0
	Average stack size (kbytes): 0
	Average total size (kbytes): 0
	Maximum resident set size (kbytes): 136664
	Average resident set size (kbytes): 0
	Major (requiring I/O) page faults: 0
	Minor (reclaiming a frame) page faults: 32210
	Voluntary context switches: 5971
	Involuntary context switches: 2139
	Swaps: 0
	File system inputs: 0
	File system outputs: 16
	Socket messages sent: 0
	Socket messages received: 0
	Signals delivered: 0
	Page size (bytes): 4096
	Exit status: 0
